(set-info :source |printed by MathSAT|)
(declare-fun call_synapse.valid_s () Int)
(declare-fun call_synapse.ite2 () Int)
(declare-fun call_synapse.flby4 () Int)
(declare-fun call_synapse.garde_s2 () Bool)
(declare-fun call_synapse.ite5 () Int)
(declare-fun invalid_s () Int)
(declare-fun call_First.First () Int)
(declare-fun call_synapse.ite10 () Int)
(declare-fun call_synapse.ite14 () Int)
(declare-fun flby () Bool)
(declare-fun call_synapse.flby3 () Int)
(declare-fun call_synapse.invalid_s () Int)
(declare-fun call_synapse.ite16 () Int)
(declare-fun call_synapse.flby2 () Int)
(declare-fun call_synapse.garde_s1 () Bool)
(declare-fun param_e_s1 () Bool)
(declare-fun param_e_s3 () Bool)
(declare-fun call_Sofar.flby () Bool)
(declare-fun call_synapse.ite12 () Int)
(declare-fun call_synapse.ite15 () Int)
(declare-fun call_synapse.ite18 () Int)
(declare-fun dirty_s () Int)
(declare-fun call_excludes3.excludes () Bool)
(declare-fun call_synapse.ite13 () Int)
(declare-fun call_synapse.ite8 () Int)
(declare-fun call_synapse.ite () Int)
(declare-fun call_First.flby () Int)
(declare-fun call_synapse.ite11 () Int)
(declare-fun env () Bool)
(declare-fun call_synapse.garde_s3 () Bool)
(declare-fun call_synapse.ite17 () Int)
(declare-fun call_synapse.ite6 () Int)
(declare-fun call_Sofar.Sofar () Bool)
(declare-fun call_synapse.flby () Int)
(declare-fun call_synapse.dirty_s () Int)
(declare-fun call_synapse.mem_init_s () Int)
(declare-fun call_synapse.ite9 () Int)
(declare-fun param_init_invalid_s () Int)
(declare-fun valid_s () Int)
(declare-fun mem_init_s () Int)
(declare-fun call_synapse.ite3 () Int)
(declare-fun call_synapse.ite4 () Int)
(declare-fun _OK_ () Bool)
(declare-fun call_synapse.ite7 () Int)
(declare-fun param_e_s2 () Bool)
(define-fun .def_641 () Bool (= call_First.flby call_First.First))
(define-fun .def_639 () Bool (= call_Sofar.flby call_Sofar.Sofar))
(define-fun .def_634 () Bool (and param_e_s3 param_e_s2))
(define-fun .def_632 () Bool (and param_e_s3 param_e_s1))
(define-fun .def_631 () Bool (and param_e_s1 param_e_s2))
(define-fun .def_633 () Bool (or .def_631 .def_632))
(define-fun .def_635 () Bool (or .def_633 .def_634))
(define-fun .def_636 () Bool (not .def_635))
(define-fun .def_637 () Bool (= call_excludes3.excludes .def_636))
(define-fun .def_629 () Bool (= call_synapse.flby call_synapse.mem_init_s))
(define-fun .def_627 () Bool (= call_synapse.flby4 call_synapse.dirty_s))
(define-fun .def_625 () Bool (= call_synapse.flby3 call_synapse.valid_s))
(define-fun .def_623 () Bool (= call_synapse.flby2 call_synapse.invalid_s))
(define-fun .def_619 () Bool (= call_synapse.ite16 call_synapse.ite17))
(define-fun .def_620 () Bool (or param_e_s2 .def_619))
(define-fun .def_616 () Bool (= call_synapse.ite14 call_synapse.ite17))
(define-fun .def_607 () Bool (not param_e_s2))
(define-fun .def_617 () Bool (or .def_607 .def_616))
(define-fun .def_613 () Bool (= call_synapse.ite10 call_synapse.ite11))
(define-fun .def_614 () Bool (or param_e_s2 .def_613))
(define-fun .def_610 () Bool (= call_synapse.ite8 call_synapse.ite11))
(define-fun .def_611 () Bool (or .def_607 .def_610))
(define-fun .def_606 () Bool (= call_synapse.ite5 call_synapse.ite2))
(define-fun .def_608 () Bool (or .def_606 .def_607))
(define-fun .def_602 () Bool (= call_synapse.ite4 call_synapse.ite5))
(define-fun .def_604 () Bool (or .def_602 param_e_s2))
(define-fun .def_609 () Bool (and .def_604 .def_608))
(define-fun .def_612 () Bool (and .def_609 .def_611))
(define-fun .def_615 () Bool (and .def_612 .def_614))
(define-fun .def_618 () Bool (and .def_615 .def_617))
(define-fun .def_621 () Bool (and .def_618 .def_620))
(define-fun .def_598 () Bool (= call_synapse.ite18 call_synapse.ite17))
(define-fun .def_599 () Bool (or param_e_s1 .def_598))
(define-fun .def_594 () Bool (= call_synapse.ite13 call_synapse.ite18))
(define-fun .def_581 () Bool (not param_e_s1))
(define-fun .def_595 () Bool (or .def_581 .def_594))
(define-fun .def_590 () Bool (= call_synapse.ite12 call_synapse.ite11))
(define-fun .def_591 () Bool (or param_e_s1 .def_590))
(define-fun .def_586 () Bool (= call_synapse.ite7 call_synapse.ite12))
(define-fun .def_587 () Bool (or .def_581 .def_586))
(define-fun .def_580 () Bool (= call_synapse.ite6 call_synapse.ite))
(define-fun .def_582 () Bool (or .def_580 .def_581))
(define-fun .def_576 () Bool (= call_synapse.ite6 call_synapse.ite5))
(define-fun .def_578 () Bool (or .def_576 param_e_s1))
(define-fun .def_583 () Bool (and .def_578 .def_582))
(define-fun .def_588 () Bool (and .def_583 .def_587))
(define-fun .def_592 () Bool (and .def_588 .def_591))
(define-fun .def_596 () Bool (and .def_592 .def_595))
(define-fun .def_600 () Bool (and .def_596 .def_599))
(define-fun .def_572 () Bool (= env call_Sofar.Sofar))
(define-fun .def_569 () Bool (= call_synapse.mem_init_s mem_init_s))
(define-fun .def_566 () Bool (= dirty_s call_synapse.dirty_s))
(define-fun .def_563 () Bool (= valid_s call_synapse.valid_s))
(define-fun .def_560 () Bool (= invalid_s call_synapse.invalid_s))
(define-fun .def_550 () Int (* (- 1) call_First.First))
(define-fun .def_551 () Int (+ invalid_s .def_550))
(define-fun .def_552 () Int (+ valid_s .def_551))
(define-fun .def_553 () Int (+ dirty_s .def_552))
(define-fun .def_554 () Bool (= .def_553 0))
(define-fun .def_539 () Bool (<= 2 dirty_s))
(define-fun .def_540 () Bool (not .def_539))
(define-fun .def_541 () Bool (and flby .def_540))
(define-fun .def_555 () Bool (and .def_541 .def_554))
(define-fun .def_536 () Bool (<= 1 valid_s))
(define-fun .def_537 () Bool (not .def_536))
(define-fun .def_533 () Bool (<= 1 dirty_s))
(define-fun .def_534 () Bool (not .def_533))
(define-fun .def_538 () Bool (or .def_534 .def_537))
(define-fun .def_556 () Bool (and .def_538 .def_555))
(define-fun .def_531 () Bool (not env))
(define-fun .def_557 () Bool (or .def_531 .def_556))
(define-fun .def_558 () Bool (= _OK_ .def_557))
(define-fun .def_561 () Bool (and .def_558 .def_560))
(define-fun .def_564 () Bool (and .def_561 .def_563))
(define-fun .def_567 () Bool (and .def_564 .def_566))
(define-fun .def_570 () Bool (and .def_567 .def_569))
(define-fun .def_573 () Bool (and .def_570 .def_572))
(define-fun .def_601 () Bool (and .def_573 .def_600))
(define-fun .def_622 () Bool (and .def_601 .def_621))
(define-fun .def_624 () Bool (and .def_622 .def_623))
(define-fun .def_626 () Bool (and .def_624 .def_625))
(define-fun .def_628 () Bool (and .def_626 .def_627))
(define-fun .def_630 () Bool (and .def_628 .def_629))
(define-fun .def_638 () Bool (and .def_630 .def_637))
(define-fun .def_640 () Bool (and .def_638 .def_639))
(define-fun .def_642 () Bool (and .def_640 .def_641))
(define-fun .def_527 () Bool (= param_init_invalid_s call_First.flby))
(define-fun .def_520 () Bool (<= 0 param_init_invalid_s))
(define-fun .def_522 () Bool (and .def_520 call_excludes3.excludes))
(define-fun .def_524 () Bool (= .def_522 call_Sofar.flby))
(define-fun .def_518 () Bool (= call_synapse.flby4 0))
(define-fun .def_515 () Bool (= call_synapse.flby3 0))
(define-fun .def_512 () Bool (= call_synapse.flby2 call_synapse.mem_init_s))
(define-fun .def_508 () Bool (= param_init_invalid_s call_synapse.flby))
(define-fun .def_502 () Bool (= call_synapse.ite9 0))
(define-fun .def_500 () Bool (not call_synapse.garde_s3))
(define-fun .def_503 () Bool (or .def_500 .def_502))
(define-fun .def_498 () Bool (= call_synapse.ite15 1))
(define-fun .def_501 () Bool (or .def_498 .def_500))
(define-fun .def_504 () Bool (and .def_501 .def_503))
(define-fun .def_494 () Bool (= call_synapse.ite8 0))
(define-fun .def_491 () Bool (not call_synapse.garde_s2))
(define-fun .def_495 () Bool (or .def_491 .def_494))
(define-fun .def_489 () Bool (= call_synapse.ite14 1))
(define-fun .def_492 () Bool (or .def_489 .def_491))
(define-fun .def_496 () Bool (and .def_492 .def_495))
(define-fun .def_485 () Bool (= call_synapse.ite13 0))
(define-fun .def_483 () Bool (not call_synapse.garde_s1))
(define-fun .def_486 () Bool (or .def_483 .def_485))
(define-fun .def_477 () Bool (= call_synapse.ite15 call_synapse.ite16))
(define-fun .def_468 () Bool (not param_e_s3))
(define-fun .def_478 () Bool (or .def_468 .def_477))
(define-fun .def_472 () Bool (= call_synapse.ite3 call_synapse.ite4))
(define-fun .def_473 () Bool (or .def_468 .def_472))
(define-fun .def_466 () Bool (= call_synapse.ite9 call_synapse.ite10))
(define-fun .def_469 () Bool (or .def_466 .def_468))
(define-fun .def_474 () Bool (and .def_469 .def_473))
(define-fun .def_479 () Bool (and .def_474 .def_478))
(define-fun .def_481 () Bool (and .def_479 flby))
(define-fun .def_487 () Bool (and .def_481 .def_486))
(define-fun .def_497 () Bool (and .def_487 .def_496))
(define-fun .def_505 () Bool (and .def_497 .def_504))
(define-fun .def_509 () Bool (and .def_505 .def_508))
(define-fun .def_513 () Bool (and .def_509 .def_512))
(define-fun .def_516 () Bool (and .def_513 .def_515))
(define-fun .def_519 () Bool (and .def_516 .def_518))
(define-fun .def_525 () Bool (and .def_519 .def_524))
(define-fun .def_528 () Bool (and .def_525 .def_527))
(define-fun .def_643 () Bool (and .def_528 .def_642))
(assert .def_643)
